Minimize
 obj: - 7 y(0) - 8 y(1) + 10 y(2) - y(6) + 5 y(7) - 5 y(9) + 23 x(0) - 6 y(5)
      + 7 y(8) - 61 x(1) - 71 x(2) - 157 x(3) + 3 y(4) + 183 x(4) - 37 x(5)
      + 155 x(6) - 4 y(3) - 103 x(7) + 83 x(8) + 103 x(9) 
Subject To
 c1:  7 y(0) + 20 y(1) + 16 y(2) + 20 y(6) + 12 y(7) + 2 y(9) + 11 x(0) <= 67
 c2:  8 y(0) + 18 y(7) + 18 y(5) + 8 y(8) + 16 x(1) <= 67
 c3:  14 y(0) + 2 y(7) + 16 y(8) + 8 x(2) <= 53
 c4:  9 y(6) + 2 x(3) <= 62
 c5:  13 y(0) + 7 y(1) + 18 y(2) + 18 y(7) + 19 y(8) + 10 y(4) + 18 x(4) <= 89
 c6:  6 y(0) + 17 y(1) + 20 y(6) + 3 y(8) + 10 x(5) <= 85
 c7:  8 y(1) + 7 y(9) + 18 y(8) + 20 x(6) <= 67
 c8:  16 y(1) + 5 y(6) + 19 y(9) + 18 y(8) + 6 y(3) + 18 x(7) <= 90
 c9:  - y(5) + 12 y(3) + 6 x(8) <= 88
 c10: 7 y(2) + 10 y(6) + 9 x(9) <= 81
 c11: - y(0) + 15 y(2) + 20 y(6) + 13 y(9) + 9 y(5) + 13 y(8) + 2 y(3) <= 55
 c12: 6 y(1) - y(2) + 6 y(5) + 15 y(8) + y(3) <= 84
 c13: 2 y(0) + 12 y(7) + 10 y(9) + 19 y(5) + 5 y(8) + 19 y(4) <= 96
 c14: 5 y(0) + 4 y(8) + 9 y(3) <= 72
 c15: 19 y(9) + 11 y(5) + y(4) + 12 y(3) <= 68
 c16: 9 y(0) + 10 y(9) + 11 y(5) + 11 y(3) <= 64
 c17: 9 y(1) + 19 y(2) + 11 y(9) + 2 y(8) + 12 y(4) <= 88
 c18: 7 y(0) + 11 y(2) + 13 y(8) <= 52
 c19: 10 y(1) + 13 y(9) + 19 y(4) <= 70
 c20: x(0) + x(1) + x(2) + x(3) + x(4) + x(5) + x(6) + x(7) + x(8) + x(9) <= 3
 c21: 9 y(0) - 9 y(1) - 2 y(2) + 3 y(6) - 3 y(7) - 5 y(9) - 192 x(0) - 3 y(5)
      + 3 y(8) + 97 x(1) + 194 x(2) + 195 x(3) + 5 y(4) + 43 x(4) + 20 x(5)
      + 75 x(6) - 3 y(3) + 161 x(7) - 147 x(8) - 59 x(9) = 0
Bounds
 0 <= x(0) <= 1
 0 <= x(1) <= 1
 0 <= x(2) <= 1
 0 <= x(3) <= 1
 0 <= x(4) <= 1
 0 <= x(5) <= 1
 0 <= x(6) <= 1
 0 <= x(7) <= 1
 0 <= x(8) <= 1
 0 <= x(9) <= 1
Binaries
 x(0)  x(1)  x(2)  x(3)  x(4)  x(5)  x(6)  x(7)  x(8)  x(9) 
End
